p cnf 129 202
-1 -2 124 0 
-3 -4 83 124 0 
-5 125 0 
-6 -7 10 14 23 27 37 65 124 0 
-8 12 29 43 54 58 88 96 110 114 124 0 
-9 32 -7 10 14 23 27 37 65 124 0 
-10 7 14 23 27 37 65 125 0 
-6 -11 75 125 0 
-12 8 29 43 54 58 88 96 110 114 126 0 
-13 30 36 49 57 63 76 87 108 109 127 0 
-14 7 10 23 27 37 65 124 0 
-15 48 124 0 
-14 7 10 23 27 37 65 125 0 
-16 89 -2 124 0 
-2 124 0 
-17 115 -2 124 0 
-18 47 -19 -2 125 0 
-20 125 0 
-21 51 56 67 80 92 105 111 112 125 0 
-22 -2 128 0 
-23 7 10 14 27 37 65 -2 124 0 
-24 31 50 72 73 101 102 113 -25 125 0 
-26 66 -2 124 0 
-27 7 10 14 23 37 65 124 0 
-28 125 0 
-29 8 12 43 54 58 88 96 110 114 124 0 
-30 13 36 49 57 63 76 87 108 109 124 0 
-31 24 50 72 73 101 102 113 124 0 
-32 9 125 0 
-33 35 124 0 
-22 -25 125 0 
-23 7 10 14 27 37 65 124 0 
-34 81 104 124 0 
-30 13 36 49 57 63 76 87 108 109 125 0 
-35 33 125 0 
-36 13 30 49 57 63 76 87 108 109 125 0 
-31 24 50 72 73 101 102 113 125 0 
-37 7 10 14 23 27 65 -25 125 0 
-38 -39 61 107 125 0 
-40 124 0 
-11 75 125 0 
-34 81 104 125 0 
-14 7 10 23 27 37 65 -41 124 0 
-18 47 -42 125 0 
-43 8 12 29 54 58 88 96 110 114 -44 125 0 
-14 7 10 23 27 37 65 -44 125 0 
-42 124 0 
-45 79 98 125 0 
-46 62 125 0 
-47 18 125 0 
-48 15 124 0 
-48 15 125 0 
-49 13 30 36 57 63 76 87 108 109 124 0 
-29 8 12 43 54 58 88 96 110 114 125 0 
-11 75 -50 24 31 72 73 101 102 113 125 0 
-14 7 10 23 27 37 65 -51 21 56 67 80 92 105 111 112 125 0 
-11 75 -48 15 125 0 
-6 -52 125 0 
-5 -53 124 0 
-54 8 12 29 43 58 88 96 110 114 124 0 
-16 89 124 0 
-32 9 -14 7 10 23 27 37 65 124 0 
-46 62 -11 75 -14 7 10 23 27 37 65 124 0 
-46 62 -30 13 36 49 57 63 76 87 108 109 124 0 
-55 125 0 
-56 21 51 67 80 92 105 111 112 -44 -2 124 0 
-35 33 124 0 
-11 75 -2 125 0 
-57 13 30 36 49 63 76 87 108 109 125 0 
-58 8 12 29 43 54 88 96 110 114 124 0 
-28 124 0 
-59 124 0 
-60 125 0 
-26 66 -25 125 0 
-25 -2 125 0 
-14 7 10 23 27 37 65 -25 125 0 
-25 125 0 
-61 39 107 -2 125 0 
-62 46 -2 125 0 
-63 13 30 36 49 57 76 87 108 109 125 0 
-64 124 0 
-26 66 124 0 
-65 7 10 14 23 27 37 124 0 
-65 7 10 14 23 27 37 125 0 
-66 26 125 0 
-32 9 -50 24 31 72 73 101 102 113 125 0 
-14 7 10 23 27 37 65 -52 125 0 
-6 -11 75 -67 21 51 56 80 92 105 111 112 125 0 
-52 125 0 
-46 62 -11 75 -50 24 31 72 73 101 102 113 125 0 
-46 62 -30 13 36 49 57 63 76 87 108 109 125 0 
-68 -69 -70 129 0 
-71 -72 24 31 50 73 101 102 113 125 0 
-14 7 10 23 27 37 65 -73 24 31 50 72 101 102 113 125 0 
-22 -11 75 -50 24 31 72 73 101 102 113 125 0 
-32 9 -21 51 56 67 80 92 105 111 112 125 0 
-14 7 10 23 27 37 65 -21 51 56 67 80 92 105 111 112 125 0 
-14 7 10 23 27 37 65 -67 21 51 56 80 92 105 111 112 125 0 
-22 -48 15 125 0 
-74 125 0 
-6 -75 11 -76 13 30 36 49 57 63 87 108 109 124 0 
-76 13 30 36 49 57 63 87 108 109 124 0 
-77 125 0 
-18 47 -78 -2 124 0 
-79 45 98 -2 125 0 
-53 -5 125 0 
-11 75 -50 24 31 72 73 101 102 113 124 0 
-11 75 -80 21 51 56 67 92 105 111 112 124 0 
-81 34 104 125 0 
-26 66 -25 124 0 
-82 125 0 
-42 -83 4 124 0 
-84 124 0 
-83 4 124 0 
-11 75 -14 7 10 23 27 37 65 124 0 
-85 106 -14 7 10 23 27 37 65 124 0 
-30 13 36 49 57 63 76 87 108 109 -14 7 10 23 27 37 65 125 0 
-41 -29 8 12 43 54 58 88 96 110 114 -50 24 31 72 73 101 102 113 125 0 
-11 75 -80 21 51 56 67 92 105 111 112 125 0 
-6 -22 -48 15 125 0 
-32 9 -52 125 0 
-41 -30 13 36 49 57 63 76 87 108 109 125 0 
-46 62 -41 -52 125 0 
-22 -30 13 36 49 57 63 76 87 108 109 124 0 
-86 124 0 
-32 9 -30 13 36 49 57 63 76 87 108 109 124 0 
-11 75 -21 51 56 67 80 92 105 111 112 125 0 
-14 7 10 23 27 37 65 -50 24 31 72 73 101 102 113 125 0 
-87 13 30 36 49 57 63 76 108 109 125 0 
-88 8 12 29 43 54 58 96 110 114 124 0 
-46 62 -29 8 12 43 54 58 88 96 110 114 125 0 
-11 75 -29 8 12 43 54 58 88 96 110 114 124 0 
-89 16 124 0 
-89 16 125 0 
-53 -90 125 0 
-91 -44 125 0 
-92 21 51 56 67 80 105 111 112 -44 125 0 
-11 75 -93 125 0 
-56 21 51 67 80 92 105 111 112 124 0 
-2 125 0 
-94 -25 125 0 
-56 21 51 67 80 92 105 111 112 -2 125 0 
-2 128 0 
-95 -1 125 0 
-46 62 124 0 
-61 39 107 125 0 
-26 66 -61 39 107 125 0 
-96 8 12 29 43 54 58 88 110 114 -25 125 0 
-97 124 0 
-98 45 79 125 0 
-22 -14 7 10 23 27 37 65 124 0 
-50 24 31 72 73 101 102 113 -11 75 125 0 
-6 -11 75 -30 13 36 49 57 63 76 87 108 109 125 0 
-99 124 0 
-71 -30 13 36 49 57 63 76 87 108 109 124 0 
-100 125 0 
-46 62 -14 7 10 23 27 37 65 124 0 
-71 -101 24 31 50 72 73 102 113 124 0 
-78 -83 4 124 0 
-6 -32 9 125 0 
-41 -102 24 31 50 72 73 101 113 125 0 
-46 62 -90 125 0 
-75 11 -103 125 0 
-6 -8 12 29 43 54 58 88 96 110 114 124 0 
-85 106 -29 8 12 43 54 58 88 96 110 114 125 0 
-104 34 81 125 0 
-105 21 51 56 67 80 92 111 112 125 0 
-106 85 -11 75 124 0 
-26 66 -107 39 61 -25 125 0 
-108 13 30 36 49 57 63 76 87 109 124 0 
-109 13 30 36 49 57 63 76 87 108 -56 21 51 67 80 92 105 111 112 125 0 
-110 8 12 29 43 54 58 88 96 114 126 0 
-71 -111 21 51 56 67 80 92 105 112 125 0 
-32 9 -51 21 56 67 80 92 105 111 112 125 0 
-71 -112 21 51 56 67 80 92 105 111 125 0 
-32 9 -50 24 31 72 73 101 102 113 124 0 
-32 9 -80 21 51 56 67 92 105 111 112 124 0 
-46 62 -48 15 124 0 
-11 75 -113 24 31 50 72 73 101 102 124 0 
-41 -114 8 12 29 43 54 58 88 96 110 124 0 
-71 -113 24 31 50 72 73 101 102 125 0 
-46 62 -52 124 0 
-41 -52 125 0 
-41 -48 15 125 0 
-52 124 0 
-22 -114 8 12 29 43 54 58 88 96 110 125 0 
-71 -72 24 31 50 73 101 102 113 124 0 
-11 75 -51 21 56 67 80 92 105 111 112 124 0 
-115 17 -2 124 0 
-95 125 0 
-3 -2 124 0 
-116 -25 -2 125 0 
-117 -2 125 0 
-11 75 -118 125 0 
-61 39 107 -44 -2 125 0 
-18 47 -19 -2 124 0 
-18 47 -119 -2 125 0 
-55 125 0 
-120 124 0 
-121 -44 124 0 
-46 62 -2 125 0 
-122 -123 125 0 
